coords = array2d(1..44, 1..2, [586, 603, 929, 325, 55, 187, 438, 368, 443, 364,
    455, 54, 850, 27, 556, 971, 499, 908, 557, 146, 824, 574, 171,
    269, 369, 365, 874, 918, 409, 924, 434, 155, 191, 598, 783, 691,
    313, 436, 953, 93, 871, 880, 764, 274, 874, 733, 787, 561, 387,
    653, 250, 821, 800, 228, 766, 830, 281, 240, 9, 912, 535, 863, 84,
    708, 112, 784, 906, 605, 507, 539, 126, 342, 248, 336, 839, 385,
    527, 387, 724, 949, 364, 627, 161, 29, 561, 277, 60, 614]);

n = 44;

